32	0

0	1	2
1	1	3
5	1	4
8	1	5
4	1	6
9	1	7
10	1	8
3	1	9
1	2	10	11
6	1	12
1	1	12
9	1	13
1	1	14
8	1	15
5	1	16
4	1	17
1	1	18
10	1	19
7	1	20
5	2	21	22
9	1	23
8	1	23
1	2	24	25
7	1	26
4	1	26
4	2	27	30
3	1	28
4	2	29	31
7	1	32
10	1	31
10	1	32
0	0
